set of int: V = 1..5;
set of int: A = 1..5;

set of int: NODES = 1..5;
set of int: USERS = 1..5;

% Max capacity per Node
capacity = [5, 1, 1, 1, 2];

% Delay on links between nodes
delay = array2d(NODES, NODES, [
  0, 2, 3, 4, 5,
  2, 0, 4, 1, 3, 
  3, 4, 0, 2, 1,
  4, 1, 2, 0, 3,
  5, 3, 1, 3, 0
]);


% Transmission cost
transmission_cost = array2d(NODES, NODES, [
  0, 5, 8, 0, 3,
  5, 0, 2, 4, 0,
  8, 2, 0, 0, 6,
  0, 4, 0, 0, 7,
  3, 0, 6, 7, 0
]);

Request_Array = [1,1,1,1,1];

Max_Delay_For_App = 12;
